c nIsolatedPIs 0
c maxPI 32
p cnf 252 661
c gate 33 8 -24 0
8 -33 0
-24 -33 0
-8 24 33 0
c gate 34 9 -25 0
9 -34 0
-25 -34 0
-9 25 34 0
c gate 35 -33 -34 0
-33 -35 0
-34 -35 0
33 34 35 0
c gate 36 -10 26 0
-10 -36 0
26 -36 0
10 -26 36 0
c gate 37 10 -26 0
10 -37 0
-26 -37 0
-10 26 37 0
c gate 38 -36 -37 0
-36 -38 0
-37 -38 0
36 37 38 0
c gate 39 -35 38 0
-35 -39 0
38 -39 0
35 -38 39 0
c gate 40 35 -38 0
35 -40 0
-38 -40 0
-35 38 40 0
c gate 41 -39 -40 0
-39 -41 0
-40 -41 0
39 40 41 0
c gate 42 -9 25 0
-9 -42 0
25 -42 0
9 -25 42 0
c gate 43 8 24 0
8 -43 0
24 -43 0
-8 -24 43 0
c gate 44 -8 -24 0
-8 -44 0
-24 -44 0
8 24 44 0
c gate 45 -43 -44 0
-43 -45 0
-44 -45 0
43 44 45 0
c gate 46 6 -22 0
6 -46 0
-22 -46 0
-6 22 46 0
c gate 47 -2 18 0
-2 -47 0
18 -47 0
2 -18 47 0
c gate 48 -1 17 0
-1 -48 0
17 -48 0
1 -17 48 0
c gate 49 -47 -48 0
-47 -49 0
-48 -49 0
47 48 49 0
c gate 50 2 -18 0
2 -50 0
-18 -50 0
-2 18 50 0
c gate 51 3 -19 0
3 -51 0
-19 -51 0
-3 19 51 0
c gate 52 -50 -51 0
-50 -52 0
-51 -52 0
50 51 52 0
c gate 53 -49 52 0
-49 -53 0
52 -53 0
49 -52 53 0
c gate 54 -4 20 0
-4 -54 0
20 -54 0
4 -20 54 0
c gate 55 -3 19 0
-3 -55 0
19 -55 0
3 -19 55 0
c gate 56 -54 -55 0
-54 -56 0
-55 -56 0
54 55 56 0
c gate 57 -53 56 0
-53 -57 0
56 -57 0
53 -56 57 0
c gate 58 5 -21 0
5 -58 0
-21 -58 0
-5 21 58 0
c gate 59 4 -20 0
4 -59 0
-20 -59 0
-4 20 59 0
c gate 60 -58 -59 0
-58 -60 0
-59 -60 0
58 59 60 0
c gate 61 -57 60 0
-57 -61 0
60 -61 0
57 -60 61 0
c gate 62 -5 21 0
-5 -62 0
21 -62 0
5 -21 62 0
c gate 63 -6 -22 0
-6 -63 0
-22 -63 0
6 22 63 0
c gate 64 6 22 0
6 -64 0
22 -64 0
-6 -22 64 0
c gate 65 -63 -64 0
-63 -65 0
-64 -65 0
63 64 65 0
c gate 66 -62 -65 0
-62 -66 0
-65 -66 0
62 65 66 0
c gate 67 -61 66 0
-61 -67 0
66 -67 0
61 -66 67 0
c gate 68 -46 -67 0
-46 -68 0
-67 -68 0
46 67 68 0
c gate 69 -7 -23 0
-7 -69 0
-23 -69 0
7 23 69 0
c gate 70 7 23 0
7 -70 0
23 -70 0
-7 -23 70 0
c gate 71 -69 -70 0
-69 -71 0
-70 -71 0
69 70 71 0
c gate 72 -68 -71 0
-68 -72 0
-71 -72 0
68 71 72 0
c gate 73 7 -23 0
7 -73 0
-23 -73 0
-7 23 73 0
c gate 74 -45 73 0
-45 -74 0
73 -74 0
45 -73 74 0
c gate 75 -72 -74 0
-72 -75 0
-74 -75 0
72 74 75 0
c gate 76 -45 -75 0
-45 -76 0
-75 -76 0
45 75 76 0
c gate 77 35 -76 0
35 -77 0
-76 -77 0
-35 76 77 0
c gate 78 -42 -77 0
-42 -78 0
-77 -78 0
42 77 78 0
c gate 79 38 -78 0
38 -79 0
-78 -79 0
-38 78 79 0
c gate 80 -38 78 0
-38 -80 0
78 -80 0
38 -78 80 0
c gate 81 -79 -80 0
-79 -81 0
-80 -81 0
79 80 81 0
c gate 82 -41 -81 0
-41 -82 0
-81 -82 0
41 81 82 0
c gate 83 41 81 0
41 -83 0
81 -83 0
-41 -81 83 0
c gate 84 -82 -83 0
-82 -84 0
-83 -84 0
82 83 84 0
c gate 85 67 71 0
67 -85 0
71 -85 0
-67 -71 85 0
c gate 86 -72 -85 0
-72 -86 0
-85 -86 0
72 85 86 0
c gate 87 -16 -32 0
-16 -87 0
-32 -87 0
16 32 87 0
c gate 88 16 32 0
16 -88 0
32 -88 0
-16 -32 88 0
c gate 89 -87 -88 0
-87 -89 0
-88 -89 0
87 88 89 0
c gate 90 -15 -31 0
-15 -90 0
-31 -90 0
15 31 90 0
c gate 91 15 31 0
15 -91 0
31 -91 0
-15 -31 91 0
c gate 92 -90 -91 0
-90 -92 0
-91 -92 0
90 91 92 0
c gate 93 -14 -30 0
-14 -93 0
-30 -93 0
14 30 93 0
c gate 94 14 30 0
14 -94 0
30 -94 0
-14 -30 94 0
c gate 95 -93 -94 0
-93 -95 0
-94 -95 0
93 94 95 0
c gate 96 -13 -29 0
-13 -96 0
-29 -96 0
13 29 96 0
c gate 97 13 29 0
13 -97 0
29 -97 0
-13 -29 97 0
c gate 98 -12 -28 0
-12 -98 0
-28 -98 0
12 28 98 0
c gate 99 12 28 0
12 -99 0
28 -99 0
-12 -28 99 0
c gate 100 -11 -27 0
-11 -100 0
-27 -100 0
11 27 100 0
c gate 101 11 27 0
11 -101 0
27 -101 0
-11 -27 101 0
c gate 102 -10 -26 0
-10 -102 0
-26 -102 0
10 26 102 0
c gate 103 10 26 0
10 -103 0
26 -103 0
-10 -26 103 0
c gate 104 9 25 0
9 -104 0
25 -104 0
-9 -25 104 0
c gate 105 -103 -104 0
-103 -105 0
-104 -105 0
103 104 105 0
c gate 106 4 20 0
4 -106 0
20 -106 0
-4 -20 106 0
c gate 107 2 18 0
2 -107 0
18 -107 0
-2 -18 107 0
c gate 108 1 17 0
1 -108 0
17 -108 0
-1 -17 108 0
c gate 109 3 19 0
3 -109 0
19 -109 0
-3 -19 109 0
c gate 110 -108 -109 0
-108 -110 0
-109 -110 0
108 109 110 0
c gate 111 -107 110 0
-107 -111 0
110 -111 0
107 -110 111 0
c gate 112 -54 -59 0
-54 -112 0
-59 -112 0
54 59 112 0
c gate 113 -3 -19 0
-3 -113 0
-19 -113 0
3 19 113 0
c gate 114 -112 -113 0
-112 -114 0
-113 -114 0
112 113 114 0
c gate 115 -111 114 0
-111 -115 0
114 -115 0
111 -114 115 0
c gate 116 -106 -115 0
-106 -116 0
-115 -116 0
106 115 116 0
c gate 117 -58 -62 0
-58 -117 0
-62 -117 0
58 62 117 0
c gate 118 -116 -117 0
-116 -118 0
-117 -118 0
116 117 118 0
c gate 119 -47 108 0
-47 -119 0
108 -119 0
47 -108 119 0
c gate 120 -2 119 0
-2 -120 0
119 -120 0
2 -119 120 0
c gate 121 -109 120 0
-109 -121 0
120 -121 0
109 -120 121 0
c gate 122 115 121 0
115 -122 0
121 -122 0
-115 -121 122 0
c gate 123 118 -122 0
118 -123 0
-122 -123 0
-118 122 123 0
c gate 124 5 21 0
5 -124 0
21 -124 0
-5 -21 124 0
c gate 125 65 -124 0
65 -125 0
-124 -125 0
-65 124 125 0
c gate 126 -123 125 0
-123 -126 0
125 -126 0
123 -125 126 0
c gate 127 -63 -126 0
-63 -127 0
-126 -127 0
63 126 127 0
c gate 128 71 -127 0
71 -128 0
-127 -128 0
-71 127 128 0
c gate 129 45 128 0
45 -129 0
128 -129 0
-45 -128 129 0
c gate 130 -43 69 0
-43 -130 0
69 -130 0
43 -69 130 0
c gate 131 -9 -25 0
-9 -131 0
-25 -131 0
9 25 131 0
c gate 132 -44 -131 0
-44 -132 0
-131 -132 0
44 131 132 0
c gate 133 -130 132 0
-130 -133 0
132 -133 0
130 -132 133 0
c gate 134 -129 133 0
-129 -134 0
133 -134 0
129 -133 134 0
c gate 135 105 -134 0
105 -135 0
-134 -135 0
-105 134 135 0
c gate 136 -102 -135 0
-102 -136 0
-135 -136 0
102 135 136 0
c gate 137 -101 -136 0
-101 -137 0
-136 -137 0
101 136 137 0
c gate 138 -100 -137 0
-100 -138 0
-137 -138 0
100 137 138 0
c gate 139 -99 -138 0
-99 -139 0
-138 -139 0
99 138 139 0
c gate 140 -98 -139 0
-98 -140 0
-139 -140 0
98 139 140 0
c gate 141 -97 -140 0
-97 -141 0
-140 -141 0
97 140 141 0
c gate 142 -96 -141 0
-96 -142 0
-141 -142 0
96 141 142 0
c gate 143 95 -142 0
95 -143 0
-142 -143 0
-95 142 143 0
c gate 144 -93 -143 0
-93 -144 0
-143 -144 0
93 143 144 0
c gate 145 92 -144 0
92 -145 0
-144 -145 0
-92 144 145 0
c gate 146 -90 -145 0
-90 -146 0
-145 -146 0
90 145 146 0
c gate 147 89 -146 0
89 -147 0
-146 -147 0
-89 146 147 0
c gate 148 -89 146 0
-89 -148 0
146 -148 0
89 -146 148 0
c gate 149 -147 -148 0
-147 -149 0
-148 -149 0
147 148 149 0
c gate 150 -97 -99 0
-97 -150 0
-99 -150 0
97 99 150 0
c gate 151 95 -150 0
95 -151 0
-150 -151 0
-95 150 151 0
c gate 152 -94 -151 0
-94 -152 0
-151 -152 0
94 151 152 0
c gate 153 -91 152 0
-91 -153 0
152 -153 0
91 -152 153 0
c gate 154 -89 153 0
-89 -154 0
153 -154 0
89 -153 154 0
c gate 155 89 -153 0
89 -155 0
-153 -155 0
-89 153 155 0
c gate 156 -154 -155 0
-154 -156 0
-155 -156 0
154 155 156 0
c gate 157 149 156 0
149 -157 0
156 -157 0
-149 -156 157 0
c gate 158 -149 -156 0
-149 -158 0
-156 -158 0
149 156 158 0
c gate 159 -157 -158 0
-157 -159 0
-158 -159 0
157 158 159 0
c gate 160 89 -159 0
89 -160 0
-159 -160 0
-89 159 160 0
c gate 161 86 -160 0
86 -161 0
-160 -161 0
-86 160 161 0
c gate 162 -126 -128 0
-126 -162 0
-128 -162 0
126 128 162 0
c gate 163 107 108 0
107 -163 0
108 -163 0
-107 -108 163 0
c gate 164 162 163 0
162 -164 0
163 -164 0
-162 -163 164 0
c gate 165 -129 -164 0
-129 -165 0
-164 -165 0
129 164 165 0
c gate 166 -92 144 0
-92 -166 0
144 -166 0
92 -144 166 0
c gate 167 -145 -166 0
-145 -167 0
-166 -167 0
145 166 167 0
c gate 168 92 -152 0
92 -168 0
-152 -168 0
-92 152 168 0
c gate 169 -92 152 0
-92 -169 0
152 -169 0
92 -152 169 0
c gate 170 -168 -169 0
-168 -170 0
-169 -170 0
168 169 170 0
c gate 171 -167 -170 0
-167 -171 0
-170 -171 0
167 170 171 0
c gate 172 167 170 0
167 -172 0
170 -172 0
-167 -170 172 0
c gate 173 -96 -97 0
-96 -173 0
-97 -173 0
96 97 173 0
c gate 174 99 173 0
99 -174 0
173 -174 0
-99 -173 174 0
c gate 175 140 -174 0
140 -175 0
-174 -175 0
-140 174 175 0
c gate 176 -172 -175 0
-172 -176 0
-175 -176 0
172 175 176 0
c gate 177 -171 176 0
-171 -177 0
176 -177 0
171 -176 177 0
c gate 178 159 177 0
159 -178 0
177 -178 0
-159 -177 178 0
c gate 179 165 178 0
165 -179 0
178 -179 0
-165 -178 179 0
c gate 180 105 -133 0
105 -180 0
-133 -180 0
-105 133 180 0
c gate 181 -98 -99 0
-98 -181 0
-99 -181 0
98 99 181 0
c gate 182 -100 -102 0
-100 -182 0
-102 -182 0
100 102 182 0
c gate 183 181 182 0
181 -183 0
182 -183 0
-181 -182 183 0
c gate 184 -180 183 0
-180 -184 0
183 -184 0
180 -183 184 0
c gate 185 -138 184 0
-138 -185 0
184 -185 0
138 -184 185 0
c gate 186 129 -185 0
129 -186 0
-185 -186 0
-129 185 186 0
c gate 187 178 -186 0
178 -187 0
-186 -187 0
-178 186 187 0
c gate 188 -95 150 0
-95 -188 0
150 -188 0
95 -150 188 0
c gate 189 -151 -188 0
-151 -189 0
-188 -189 0
151 188 189 0
c gate 190 -95 142 0
-95 -190 0
142 -190 0
95 -142 190 0
c gate 191 -143 -190 0
-143 -191 0
-190 -191 0
143 190 191 0
c gate 192 189 191 0
189 -192 0
191 -192 0
-189 -191 192 0
c gate 193 140 -173 0
140 -193 0
-173 -193 0
-140 173 193 0
c gate 194 -192 193 0
-192 -194 0
193 -194 0
192 -193 194 0
c gate 195 -189 -191 0
-189 -195 0
-191 -195 0
189 191 195 0
c gate 196 -194 -195 0
-194 -196 0
-195 -196 0
194 195 196 0
c gate 197 -171 196 0
-171 -197 0
196 -197 0
171 -196 197 0
c gate 198 -172 -197 0
-172 -198 0
-197 -198 0
172 197 198 0
c gate 199 -157 198 0
-157 -199 0
198 -199 0
157 -198 199 0
c gate 200 -158 -199 0
-158 -200 0
-199 -200 0
158 199 200 0
c gate 201 -187 200 0
-187 -201 0
200 -201 0
187 -200 201 0
c gate 202 -179 -201 0
-179 -202 0
-201 -202 0
179 201 202 0
c gate 203 161 -202 0
161 -203 0
-202 -203 0
-161 202 203 0
c gate 204 86 -153 0
86 -204 0
-153 -204 0
-86 153 204 0
c gate 205 147 204 0
147 -205 0
204 -205 0
-147 -204 205 0
c gate 206 -85 -205 0
-85 -206 0
-205 -206 0
85 205 206 0
c gate 207 -161 206 0
-161 -207 0
206 -207 0
161 -206 207 0
c gate 208 -203 -207 0
-203 -208 0
-207 -208 0
203 207 208 0
c gate 209 -72 -208 0
-72 -209 0
-208 -209 0
72 208 209 0
c gate 210 -76 -209 0
-76 -210 0
-209 -210 0
76 209 210 0
c gate 211 -34 -42 0
-34 -211 0
-42 -211 0
34 42 211 0
c gate 212 76 -211 0
76 -212 0
-211 -212 0
-76 211 212 0
c gate 213 -210 -212 0
-210 -213 0
-212 -213 0
210 212 213 0
c gate 214 -100 -101 0
-100 -214 0
-101 -214 0
100 101 214 0
c gate 215 -36 -79 0
-36 -215 0
-79 -215 0
36 79 215 0
c gate 216 -214 -215 0
-214 -216 0
-215 -216 0
214 215 216 0
c gate 217 -95 -173 0
-95 -217 0
-173 -217 0
95 173 217 0
c gate 218 -89 -92 0
-89 -218 0
-92 -218 0
89 92 218 0
c gate 219 -181 218 0
-181 -219 0
218 -219 0
181 -218 219 0
c gate 220 217 219 0
217 -220 0
219 -220 0
-217 -219 220 0
c gate 221 216 220 0
216 -221 0
220 -221 0
-216 -220 221 0
c gate 222 -37 -39 0
-37 -222 0
-39 -222 0
37 39 222 0
c gate 223 214 -222 0
214 -223 0
-222 -223 0
-214 222 223 0
c gate 224 214 215 0
214 -224 0
215 -224 0
-214 -215 224 0
c gate 225 -216 -224 0
-216 -225 0
-224 -225 0
216 224 225 0
c gate 226 -223 -225 0
-223 -226 0
-225 -226 0
223 225 226 0
c gate 227 -83 -213 0
-83 -227 0
-213 -227 0
83 213 227 0
c gate 228 -82 -227 0
-82 -228 0
-227 -228 0
82 227 228 0
c gate 229 -226 228 0
-226 -229 0
228 -229 0
226 -228 229 0
c gate 230 -215 223 0
-215 -230 0
223 -230 0
215 -223 230 0
c gate 231 -216 -230 0
-216 -231 0
-230 -231 0
216 230 231 0
c gate 232 -229 231 0
-229 -232 0
231 -232 0
229 -231 232 0
c gate 233 -221 -232 0
-221 -233 0
-232 -233 0
221 232 233 0
c gate 234 -213 233 0
-213 -234 0
233 -234 0
213 -233 234 0
c gate 235 -120 162 0
-120 -235 0
162 -235 0
120 -162 235 0
c gate 236 -185 -235 0
-185 -236 0
-235 -236 0
185 235 236 0
c gate 237 178 -236 0
178 -237 0
-236 -237 0
-178 236 237 0
c gate 238 200 -237 0
200 -238 0
-237 -238 0
-200 237 238 0
c gate 239 161 -238 0
161 -239 0
-238 -239 0
-161 238 239 0
c gate 240 206 -239 0
206 -240 0
-239 -240 0
-206 239 240 0
c gate 241 -72 240 0
-72 -241 0
240 -241 0
72 -240 241 0
c gate 242 -76 -241 0
-76 -242 0
-241 -242 0
76 241 242 0
c gate 243 -212 -242 0
-212 -243 0
-242 -243 0
212 242 243 0
c gate 244 -233 243 0
-233 -244 0
243 -244 0
233 -243 244 0
c gate 245 -234 -244 0
-234 -245 0
-244 -245 0
234 244 245 0
c gate 246 84 245 0
84 -246 0
245 -246 0
-84 -245 246 0
c gate 247 -82 -233 0
-82 -247 0
-233 -247 0
82 233 247 0
c gate 248 -246 247 0
-246 -248 0
247 -248 0
246 -247 248 0
c gate 249 -228 233 0
-228 -249 0
233 -249 0
228 -233 249 0
c gate 250 -226 -230 0
-226 -250 0
-230 -250 0
226 230 250 0
c gate 251 -249 -250 0
-249 -251 0
-250 -251 0
249 250 251 0
c gate 252 -248 251 0
-248 -252 0
251 -252 0
248 -251 252 0
c PO
252 0
